\ Model Sudoku Problem
\ LP format - for model browsing. Use MPS format to capture full model detail.
Minimize
 
Subject To
 R0: x_1_1_1 = 1
 R1: x_1_1_1 = 1
 R2: x_1_1_1 = 1
 R3: x_1_1_1 = 1
Bounds
Binaries
 x_1_1_1
End
